14
0 36 8 70 62 44 81 75 58 41 55 79 26 23
36 0 57 76 31 50 38 67 50 67 35 11 88 55
8 57 0 35 56 46 60 52 46 71 50 58 77 76
70 76 35 0 39 68 78 59 64 66 81 51 50 55
62 31 56 39 0 63 53 72 45 42 49 21 62 72
44 50 46 68 63 0 53 70 16 69 25 50 26 42
81 38 60 78 53 53 0 48 65 71 51 19 61 20
75 67 52 59 72 70 48 0 54 18 84 42 59 33
58 50 46 64 45 16 65 54 0 46 67 48 89 49
41 67 71 66 42 69 71 18 46 0 61 67 15 21
55 35 50 81 49 25 51 84 67 61 0 53 63 39
79 11 58 51 21 50 19 42 48 67 53 0 91 11
26 88 77 50 62 26 61 59 89 15 63 91 0 69
23 55 76 55 72 42 20 33 49 21 39 11 69 0
